SCIP version 5.0.0 [precision: 8 byte] [memory: block] [mode: optimized] [LP solver: NONE] [GitHash: 3bbd232]
Copyright (C) 2002-2017 Konrad-Zuse-Zentrum fuer Informationstechnik Berlin (ZIB)

External codes: 
  Readline EditLine w  GNU library for command line editing (gnu.org/s/readline)
  CppAD 20160000.1     Algorithmic Differentiation of C++ algorithms developed by B. Bell (www.coin-or.org/CppAD)
  ZLIB 1.2.5           General purpose compression library by J. Gailly and M. Adler (zlib.net)
  GMP 6.1.2            GNU Multiple Precision Arithmetic Library developed by T. Granlund (gmplib.org)

user parameter file <scip.set> not found - using default parameters

read problem <../../Split_data/output/breast/9/0_sample_breast.logreg>
============

File name	:	../../Split_data/output/breast/9/0_sample_breast.logreg
Problem name 	:	0_sample_breast
Number of data	:	156
Number of var	:	33
The given data has linear independence

[dim=1] time: 0.003941
[dim=2] time: 0.008176
[dim=3] time: 0.012273
[dim=4] time: 0.016223
[dim=5] time: 0.020167
[dim=6] time: 0.024461
[dim=7] time: 0.029311
[dim=8] time: 0.03617
[dim=9] time: 0.040506
[dim=10] time: 0.044024
[dim=11] Time of forward = 0.047301sec.
AIC: 127.69
k: 10

[dim=33] time: 0.012478
[dim=32] time: 0.021616
[dim=31] time: 0.037234
[dim=30] time: 0.047658
[dim=29] time: 0.057251
[dim=28] time: 0.066025
[dim=27] time: 0.074242
[dim=26] time: 0.080838
[dim=25] time: 0.087616
[dim=24] time: 0.09333
[dim=23] time: 0.098797
[dim=22] Time of backward = 0.103747sec.
AIC: 114.928
k: 23
